NAME: 5dotTestSVG.tsp 
COMMENT: 2017/12/24 10:59:26 AM created from:5dotTestSVG.svg 
TYPE: TSP 
DIMENSION: 5 
EDGE_WEIGHT_TYPE : EUC_2D 
NODE_COORD_SECTION
1 306.982 103.168
2 853.578 462.532
3 718.269 238.761
4 272.654 553.795
5 354.132 313.595
EOF
